words_easy_train/words_585_SAT.qaiger
aag 64 16 0 1 48
20
4
24
12
22
26
30
32
6
8
14
18
2
28
16
10
128
34 7 5
36 34 9
38 36 11
40 38 3
42 40 13
44 42 15
46 21 19
48 46 23
50 48 25
52 50 27
54 52 29
56 54 31
58 55 30
60 59 57
62 61 44
64 53 28
66 65 55
68 67 42
70 20 18
72 71 4
74 47 22
76 75 35
78 77 24
80 78 73
82 80 49
84 83 37
86 85 3
88 87 51
90 51 26
92 91 41
94 92 53
96 95 89
98 97 69
100 60 45
102 66 43
104 103 101
106 104 99
108 107 63
110 44 17
112 56 32
114 57 33
116 115 113
118 117 110
120 116 111
122 121 119
124 123 109
126 122 108
128 127 125
i0 1 x1[1]
i1 2 y1[1]
i2 1 x1[3]
i3 2 y1[5]
i4 1 x1[2]
i5 1 x1[4]
i6 1 x1[6]
i7 1 x1[7]
i8 2 y1[2]
i9 2 y1[3]
i10 2 y1[6]
i11 1 x1[0]
i12 2 y1[0]
i13 1 x1[5]
i14 2 y1[7]
i15 2 y1[4]
o0 bv[0]
c
simplified
  >=
    or
      unary minus
        2 y1
      2 y1
    1 x1
