words_easy_train/words_585_SAT.qaiger.qdimacs
p cnf 64 145
a 9 10 11 12 13 14 15 16 0
e 1 2 3 4 5 6 7 8 17 18 19 20 21 22 23 24 25 26 27 28 29 30 31 32 33 34 35 36 37 38 39 40 41 42 43 44 45 46 47 48 49 50 51 52 53 54 55 56 57 58 59 60 61 62 63 64 0
3 2 17 0
-3 -17 0
-2 -17 0
-17 4 18 0
17 -18 0
-4 -18 0
-18 5 19 0
18 -19 0
-5 -19 0
-19 1 20 0
19 -20 0
-1 -20 0
-20 6 21 0
20 -21 0
-6 -21 0
-21 7 22 0
21 -22 0
-7 -22 0
10 9 23 0
-10 -23 0
-9 -23 0
-23 11 24 0
23 -24 0
-11 -24 0
-24 12 25 0
24 -25 0
-12 -25 0
-25 13 26 0
25 -26 0
-13 -26 0
-26 14 27 0
26 -27 0
-14 -27 0
-27 15 28 0
27 -28 0
-15 -28 0
27 -15 29 0
-27 -29 0
15 -29 0
29 28 30 0
-29 -30 0
-28 -30 0
30 -22 31 0
-30 -31 0
22 -31 0
26 -14 32 0
-26 -32 0
14 -32 0
32 27 33 0
-32 -33 0
-27 -33 0
33 -21 34 0
-33 -34 0
21 -34 0
-10 -9 35 0
10 -35 0
9 -35 0
35 -2 36 0
-35 -36 0
2 -36 0
23 -11 37 0
-23 -37 0
11 -37 0
37 17 38 0
-37 -38 0
-17 -38 0
38 -12 39 0
-38 -39 0
12 -39 0
-39 36 40 0
39 -40 0
-36 -40 0
-40 24 41 0
40 -41 0
-24 -41 0
41 18 42 0
-41 -42 0
-18 -42 0
42 1 43 0
-42 -43 0
-1 -43 0
43 25 44 0
-43 -44 0
-25 -44 0
25 -13 45 0
-25 -45 0
13 -45 0
45 20 46 0
-45 -46 0
-20 -46 0
-46 26 47 0
46 -47 0
-26 -47 0
47 44 48 0
-47 -48 0
-44 -48 0
48 34 49 0
-48 -49 0
-34 -49 0
-30 22 50 0
30 -50 0
-22 -50 0
-33 21 51 0
33 -51 0
-21 -51 0
51 50 52 0
-51 -52 0
-50 -52 0
-52 49 53 0
52 -53 0
-49 -53 0
53 31 54 0
-53 -54 0
-31 -54 0
-22 8 55 0
22 -55 0
-8 -55 0
-28 -16 56 0
28 -56 0
16 -56 0
28 16 57 0
-28 -57 0
-16 -57 0
57 56 58 0
-57 -58 0
-56 -58 0
58 -55 59 0
-58 -59 0
55 -59 0
-58 55 60 0
58 -60 0
-55 -60 0
60 59 61 0
-60 -61 0
-59 -61 0
61 54 62 0
-61 -62 0
-54 -62 0
-61 -54 63 0
61 -63 0
54 -63 0
63 62 64 0
-63 -64 0
-62 -64 0
64 0
